Version identifier: 22.1.1.0 | 2022-11-28 | 9160aff4d
CPXPARAM_Read_DataCheck                          1
Tried aggregator 2 times.
MIP Presolve eliminated 380381 rows and 752 columns.
MIP Presolve modified 313800 coefficients.
Aggregator did 300 substitutions.
Reduced MIP has 1091849 rows, 135150 columns, and 3721947 nonzeros.
Reduced MIP has 135150 binaries, 0 generals, 0 SOSs, and 0 indicators.
Presolve time = 6.31 sec. (3458.87 ticks)
Probing fixed 2 vars, tightened 0 bounds.
Probing time = 56.89 sec. (5202.97 ticks)
Tried aggregator 1 time.
Detecting symmetries...
MIP Presolve eliminated 2639 rows and 151 columns.
MIP Presolve modified 2092 coefficients.
Reduced MIP has 1089210 rows, 134999 columns, and 3715369 nonzeros.
Reduced MIP has 134999 binaries, 0 generals, 0 SOSs, and 0 indicators.
Presolve time = 6.34 sec. (3020.10 ticks)
Probing time = 4.16 sec. (382.12 ticks)
Clique table members: 1722073.
MIP emphasis: balance optimality and feasibility.
MIP search method: dynamic search.
Parallel mode: deterministic, using up to 4 threads.
Root relaxation solution time = 38.63 sec. (13245.79 ticks)

        Nodes                                         Cuts/
   Node  Left     Objective  IInf  Best Integer    Best Bound    ItCnt     Gap

      0     0        3.0000   713                      3.0000    85163         
Heuristic still looking.
Detecting symmetries...
      0     2        3.0000   269                      3.0000    85163         
Elapsed time = 436.31 sec. (86422.77 ticks, tree = 0.02 MB, solutions = 0)
      1     3        3.0000   295                      3.0000    85219         
      2     4        3.0000   327                      3.0000    85719         
      3     5        3.0000   307                      3.0000    85869         
      6     5        3.0000   348                      3.0000    85797         
      7     6        3.0000   286                      3.0000    86093         
      8     7        3.0000   302                      3.0000    86219         
     10     9        3.0000   284                      3.0000    86554         
     11    10        3.0000   314                      3.0000    86766         
     13    12        3.0000   333                      3.0000    87306         
     20    17        3.0000   262                      3.0000    88799         
Elapsed time = 456.56 sec. (91477.30 ticks, tree = 17.61 MB, solutions = 0)
     23    19        3.0000   312                      3.0000    99873         
     25    23        3.0000   284                      3.0000   100589         
     31    27        3.0000   228                      3.0000   100964         
     33    28        3.0000   276                      3.0000   117469         
     36    32        3.0000   261                      3.0000   128414         
     39    34        3.0000   255                      3.0000   146725         
     43    37        3.0000   263                      3.0000   168903         
     50    42        3.0000   188                      3.0000   176023         
     55    43        3.0000   212                      3.0000   176843         
     62    44        3.0000   288                      3.0000   177188         
Elapsed time = 507.58 sec. (104581.89 ticks, tree = 36.85 MB, solutions = 0)
     68    45        3.0000   290                      3.0000   176698         
     74    59        3.0000   224                      3.0000   179594         
     80    58        3.0000   284                      3.0000   179125         
     89    68        3.0000   280                      3.0000   187729         
     97    72        3.0000   202                      3.0000   187827         
    103    77        3.0000   176                      3.0000   188879         
    112    90        3.0000   334                      3.0000   189780         
    120    92        3.0000   294                      3.0000   190094         
    123    94        3.0000   204                      3.0000   190313         
    126    93    infeasible                            3.0000   190586         
Elapsed time = 542.62 sec. (115518.69 ticks, tree = 50.07 MB, solutions = 0)
    131   111        3.0000   186                      3.0000   192738         
    136   112        3.0000   228                      3.0000   193023         
    141   114        3.0000   198                      3.0000   193156         
    146   115        3.0000   241                      3.0000   193059         
    152   114        3.0000   206                      3.0000   194127         
    160   125    infeasible                            3.0000   195483         
    171   132        3.0000   192                      3.0000   196231         
    177   131        3.0000   225                      3.0000   197358         
    183   134        3.0000   204                      3.0000   197544         
    191   130    infeasible                            3.0000   199231         
Elapsed time = 579.07 sec. (126280.15 ticks, tree = 62.48 MB, solutions = 0)
    200   133        3.0000   217                      3.0000   198373         
    208   153    infeasible                            3.0000   206057         
    216   150        3.0000   184                      3.0000   205903         
    222   153        3.0000   244                      3.0000   206322         
    230   155        3.0000   237                      3.0000   206372         
    239   161        3.0000   218                      3.0000   207659         
    243   162        3.0000   168                      3.0000   208272         
    249   163        3.0000   239                      3.0000   208444         
    256   163        3.0000   204                      3.0000   208514         
    260   177        3.0000   182                      3.0000   210047         
Elapsed time = 611.67 sec. (137426.48 ticks, tree = 69.36 MB, solutions = 0)
    266   179        3.0000   221                      3.0000   210325         
    272   178        3.0000   208                      3.0000   223457         
    278   180        3.0000   243                      3.0000   219716         
    282   184        3.0000   261                      3.0000   220033         
    286   181    infeasible                            3.0000   220135         
    288   179        3.0308  3192                      3.0000   230220         
    289   197        3.0000   204                      3.0000   238542         
    294   199        5.0000  1024                      3.0000   245627         
    299   198        5.0000  1117                      3.0000   254220         
    310   201        5.0000  1086                      3.0000   254341         
Elapsed time = 669.96 sec. (150147.96 ticks, tree = 72.47 MB, solutions = 0)
    315   189        3.0154  2924                      3.0000   238044         
    317   204        5.0000   960                      3.0000   255354         
    322   197        3.0036  2579                      3.0000   251153         
    323   199        5.0000   982                      3.0000   267100         
    328   227        5.0000   968                      3.0000   280830         
    339   205        5.0000   918                      3.0000   277516         
    346   239        5.0000   932                      3.0000   280871         
    350   208        5.0000  1079                      3.0000   284661         
    351   209        5.0000  1069                      3.0000   290165         
    354   228        5.0000   999                      3.0000   290933         
Elapsed time = 746.39 sec. (162823.65 ticks, tree = 84.90 MB, solutions = 0)
    358   206        5.0000   915                      3.0000   277521         
    367   240        5.0000   893                      3.0000   303139         
    370   243        5.0000   882                      3.0000   303148         
    383   250        5.0000   861                      3.0000   303158         
    390   244        5.0000   892                      3.0000   291462         
    399   252        5.0000   866                      3.0000   291492         
    408   245        5.0000   907                      3.0000   303158         
    410   247        5.0000   900                      3.0000   303166         
    418   253        5.0000   864                      3.0000   303270         
    429   294        5.0000   789                      3.0000   304598         
Elapsed time = 776.05 sec. (173289.80 ticks, tree = 527.24 MB, solutions = 0)
    439   264        5.0000   828                      3.0000   303296         
    449   304        5.0000   756                      3.0000   304679         
    455   310        5.0000   870                      3.0000   304877         
    460   305        5.0000   752                      3.0000   304682         
    467   312        5.0000   718                      3.0000   304729         
    476   341        5.0000   796                      3.0000   304689         
    485   337        5.0000   855                      3.0000   304682         
    499   344        5.0000   833                      3.0000   304698         
    515   351        5.0000   729                      3.0000   305079         
    523   349        5.0000   795                      3.0000   305056         
Elapsed time = 815.75 sec. (184060.28 ticks, tree = 776.63 MB, solutions = 0)
    536   392        5.0000   738                      3.0000   306626         
    547   360        5.0000   760                      3.0000   305078         
    556   363        5.0000   717                      3.0000   305515         
    565   386        5.0000   185                      3.0000   305977         
    583   404        5.0000   546                      3.0000   307347         
    601   448        5.0000   685                      3.0000   308130         
    613   410        5.0000   372                      3.0000   307568         
    626   476        5.0000   138                      3.0000   309087         
    638   499        5.0000   226                      3.0000   310037         
*   642   410      integral     0        5.0000        3.0000   307627   40.00%
    669   461        5.0000   248        5.0000        3.0000   309384   40.00%
Elapsed time = 865.56 sec. (198443.39 ticks, tree = 894.50 MB, solutions = 2)

Performing restart 1

Repeating presolve.
Tried aggregator 2 times.
MIP Presolve eliminated 1084421 rows and 134099 columns.
MIP Presolve modified 300 coefficients.
Aggregator did 150 substitutions.
Reduced MIP has 4639 rows, 750 columns, and 17340 nonzeros.
Reduced MIP has 750 binaries, 0 generals, 0 SOSs, and 0 indicators.
Presolve time = 0.73 sec. (662.45 ticks)
Tried aggregator 1 time.
MIP Presolve eliminated 33 rows and 31 columns.
Reduced MIP has 4606 rows, 719 columns, and 17240 nonzeros.
Reduced MIP has 719 binaries, 0 generals, 0 SOSs, and 0 indicators.
Presolve time = 0.03 sec. (22.14 ticks)
Tried aggregator 1 time.
MIP Presolve eliminated 33 rows and 26 columns.
Reduced MIP has 4573 rows, 693 columns, and 17140 nonzeros.
Reduced MIP has 693 binaries, 0 generals, 0 SOSs, and 0 indicators.
Presolve time = 0.03 sec. (22.47 ticks)
Tried aggregator 1 time.
MIP Presolve eliminated 65 rows and 32 columns.
Reduced MIP has 4508 rows, 661 columns, and 16930 nonzeros.
Reduced MIP has 661 binaries, 0 generals, 0 SOSs, and 0 indicators.
Presolve time = 0.03 sec. (22.59 ticks)
Tried aggregator 1 time.
MIP Presolve eliminated 127 rows and 31 columns.
Reduced MIP has 4381 rows, 630 columns, and 16497 nonzeros.
Reduced MIP has 630 binaries, 0 generals, 0 SOSs, and 0 indicators.
Presolve time = 0.03 sec. (22.27 ticks)
Tried aggregator 1 time.
MIP Presolve eliminated 323 rows and 45 columns.
Reduced MIP has 4058 rows, 585 columns, and 15375 nonzeros.
Reduced MIP has 585 binaries, 0 generals, 0 SOSs, and 0 indicators.
Presolve time = 0.03 sec. (20.95 ticks)
Tried aggregator 1 time.
MIP Presolve eliminated 481 rows and 47 columns.
Reduced MIP has 3577 rows, 538 columns, and 13703 nonzeros.
Reduced MIP has 538 binaries, 0 generals, 0 SOSs, and 0 indicators.
Presolve time = 0.02 sec. (18.64 ticks)
Tried aggregator 1 time.
MIP Presolve eliminated 712 rows and 52 columns.
Reduced MIP has 2865 rows, 486 columns, and 11150 nonzeros.
Reduced MIP has 486 binaries, 0 generals, 0 SOSs, and 0 indicators.
Presolve time = 0.02 sec. (15.20 ticks)
Tried aggregator 1 time.
MIP Presolve eliminated 618 rows and 36 columns.
Reduced MIP has 2247 rows, 450 columns, and 8970 nonzeros.
Reduced MIP has 450 binaries, 0 generals, 0 SOSs, and 0 indicators.
Presolve time = 0.02 sec. (13.05 ticks)
Represolve time = 1.63 sec. (1003.95 ticks)
    671     0        3.0000   196        5.0000    Cliques: 3   316085   40.00%
    671     0        3.0000   220        5.0000     Cuts: 112   316164   40.00%
    671     0        3.0000    70        5.0000    Cliques: 2   316174   40.00%
    671     0        3.0000   137        5.0000      Cuts: 44   316221   40.00%
    671     0        3.0000   138        5.0000    Cliques: 3   316259   40.00%
*   671+    0                            3.0000        3.0000             0.00%
    671     0        cutoff              3.0000        3.0000   316259    0.00%

Clique cuts applied:  2

Root node processing (before b&c):
  Real time             =  433.86 sec. (85381.90 ticks)
Parallel b&c, 4 threads:
  Real time             =  435.35 sec. (118055.94 ticks)
  Sync time (average)   =   96.14 sec.
  Wait time (average)   =    0.00 sec.
                          ------------
Total (root+branch&cut) =  869.21 sec. (203437.84 ticks)
y[0] = 1.0
y[1] = 1.0
y[2] = 1.0
y[3] = 1.0
